units                         metal
boundary                      p p p
atom_style                    atomic
dimension                     3
atom_modify                   map yes

read_data                     9_combined_structure.data

pair_style                    eam/alloy
pair_coeff                    * * Mishin-Ni-Al-2009.eam.alloy Al Al Ni

neighbor                      0.3 bin
neigh_modify                  delay 10

group                         1 type 1
group                         2 type 2
group                         3 type 3

delete_atoms                  overlap 2.5 3 2

write_data                    GB_int.data

clear

units                         metal
boundary                      p p p
atom_style                    atomic
dimension                     3
atom_modify                   map yes

read_data                     GB_int.data

pair_style                    eam/alloy
pair_coeff                    * * Mishin-Ni-Al-2009.eam.alloy Al Al Ni

neighbor                      0.3 bin
neigh_modify                  delay 10

group                         1 type 1
group                         2 type 2
group                         3 type 3

delete_atoms                  overlap 2.5 3 3

compute                       vol all voronoi/atom
run                           0

dump                          1 3 custom 1 *.dump id type x y z c_vol[1]
run                           0

write_data                    delete_int.data

